c File: flat200_3_0.col
c
c SOURCE: Joseph Culberson (joe@cs.ualberta.ca)
c DESCRIPTION: Quasi-random coloring problem
c              generated with flatness = 0
c                             probability = 0.036
c                             known coloring = 3
c                             random seed = 1094
c              Creation Date:  Wed Feb 24 10:40:21 1999
c Maximum degree = 8 Minimum degree = 1
c COLOR VERIFICATION: Using the permuted order
c under simple greedy yields the specified
c coloring number
c Color = 3 specified partitions = 3
c p edge 200 479
c cnf created by edge2cnf
p cnf 600 2237
-1 -2 0
-1 -3 0
-2 -3 0
1 2 3 0
-4 -5 0
-4 -6 0
-5 -6 0
4 5 6 0
-7 -8 0
-7 -9 0
-8 -9 0
7 8 9 0
-10 -11 0
-10 -12 0
-11 -12 0
10 11 12 0
-13 -14 0
-13 -15 0
-14 -15 0
13 14 15 0
-16 -17 0
-16 -18 0
-17 -18 0
16 17 18 0
-19 -20 0
-19 -21 0
-20 -21 0
19 20 21 0
-22 -23 0
-22 -24 0
-23 -24 0
22 23 24 0
-25 -26 0
-25 -27 0
-26 -27 0
25 26 27 0
-28 -29 0
-28 -30 0
-29 -30 0
28 29 30 0
-31 -32 0
-31 -33 0
-32 -33 0
31 32 33 0
-34 -35 0
-34 -36 0
-35 -36 0
34 35 36 0
-37 -38 0
-37 -39 0
-38 -39 0
37 38 39 0
-40 -41 0
-40 -42 0
-41 -42 0
40 41 42 0
-43 -44 0
-43 -45 0
-44 -45 0
43 44 45 0
-46 -47 0
-46 -48 0
-47 -48 0
46 47 48 0
-49 -50 0
-49 -51 0
-50 -51 0
49 50 51 0
-52 -53 0
-52 -54 0
-53 -54 0
52 53 54 0
-55 -56 0
-55 -57 0
-56 -57 0
55 56 57 0
-58 -59 0
-58 -60 0
-59 -60 0
58 59 60 0
-61 -62 0
-61 -63 0
-62 -63 0
61 62 63 0
-64 -65 0
-64 -66 0
-65 -66 0
64 65 66 0
-67 -68 0
-67 -69 0
-68 -69 0
67 68 69 0
-70 -71 0
-70 -72 0
-71 -72 0
70 71 72 0
-73 -74 0
-73 -75 0
-74 -75 0
73 74 75 0
-76 -77 0
-76 -78 0
-77 -78 0
76 77 78 0
-79 -80 0
-79 -81 0
-80 -81 0
79 80 81 0
-82 -83 0
-82 -84 0
-83 -84 0
82 83 84 0
-85 -86 0
-85 -87 0
-86 -87 0
85 86 87 0
-88 -89 0
-88 -90 0
-89 -90 0
88 89 90 0
-91 -92 0
-91 -93 0
-92 -93 0
91 92 93 0
-94 -95 0
-94 -96 0
-95 -96 0
94 95 96 0
-97 -98 0
-97 -99 0
-98 -99 0
97 98 99 0
-100 -101 0
-100 -102 0
-101 -102 0
100 101 102 0
-103 -104 0
-103 -105 0
-104 -105 0
103 104 105 0
-106 -107 0
-106 -108 0
-107 -108 0
106 107 108 0
-109 -110 0
-109 -111 0
-110 -111 0
109 110 111 0
-112 -113 0
-112 -114 0
-113 -114 0
112 113 114 0
-115 -116 0
-115 -117 0
-116 -117 0
115 116 117 0
-118 -119 0
-118 -120 0
-119 -120 0
118 119 120 0
-121 -122 0
-121 -123 0
-122 -123 0
121 122 123 0
-124 -125 0
-124 -126 0
-125 -126 0
124 125 126 0
-127 -128 0
-127 -129 0
-128 -129 0
127 128 129 0
-130 -131 0
-130 -132 0
-131 -132 0
130 131 132 0
-133 -134 0
-133 -135 0
-134 -135 0
133 134 135 0
-136 -137 0
-136 -138 0
-137 -138 0
136 137 138 0
-139 -140 0
-139 -141 0
-140 -141 0
139 140 141 0
-142 -143 0
-142 -144 0
-143 -144 0
142 143 144 0
-145 -146 0
-145 -147 0
-146 -147 0
145 146 147 0
-148 -149 0
-148 -150 0
-149 -150 0
148 149 150 0
-151 -152 0
-151 -153 0
-152 -153 0
151 152 153 0
-154 -155 0
-154 -156 0
-155 -156 0
154 155 156 0
-157 -158 0
-157 -159 0
-158 -159 0
157 158 159 0
-160 -161 0
-160 -162 0
-161 -162 0
160 161 162 0
-163 -164 0
-163 -165 0
-164 -165 0
163 164 165 0
-166 -167 0
-166 -168 0
-167 -168 0
166 167 168 0
-169 -170 0
-169 -171 0
-170 -171 0
169 170 171 0
-172 -173 0
-172 -174 0
-173 -174 0
172 173 174 0
-175 -176 0
-175 -177 0
-176 -177 0
175 176 177 0
-178 -179 0
-178 -180 0
-179 -180 0
178 179 180 0
-181 -182 0
-181 -183 0
-182 -183 0
181 182 183 0
-184 -185 0
-184 -186 0
-185 -186 0
184 185 186 0
-187 -188 0
-187 -189 0
-188 -189 0
187 188 189 0
-190 -191 0
-190 -192 0
-191 -192 0
190 191 192 0
-193 -194 0
-193 -195 0
-194 -195 0
193 194 195 0
-196 -197 0
-196 -198 0
-197 -198 0
196 197 198 0
-199 -200 0
-199 -201 0
-200 -201 0
199 200 201 0
-202 -203 0
-202 -204 0
-203 -204 0
202 203 204 0
-205 -206 0
-205 -207 0
-206 -207 0
205 206 207 0
-208 -209 0
-208 -210 0
-209 -210 0
208 209 210 0
-211 -212 0
-211 -213 0
-212 -213 0
211 212 213 0
-214 -215 0
-214 -216 0
-215 -216 0
214 215 216 0
-217 -218 0
-217 -219 0
-218 -219 0
217 218 219 0
-220 -221 0
-220 -222 0
-221 -222 0
220 221 222 0
-223 -224 0
-223 -225 0
-224 -225 0
223 224 225 0
-226 -227 0
-226 -228 0
-227 -228 0
226 227 228 0
-229 -230 0
-229 -231 0
-230 -231 0
229 230 231 0
-232 -233 0
-232 -234 0
-233 -234 0
232 233 234 0
-235 -236 0
-235 -237 0
-236 -237 0
235 236 237 0
-238 -239 0
-238 -240 0
-239 -240 0
238 239 240 0
-241 -242 0
-241 -243 0
-242 -243 0
241 242 243 0
-244 -245 0
-244 -246 0
-245 -246 0
244 245 246 0
-247 -248 0
-247 -249 0
-248 -249 0
247 248 249 0
-250 -251 0
-250 -252 0
-251 -252 0
250 251 252 0
-253 -254 0
-253 -255 0
-254 -255 0
253 254 255 0
-256 -257 0
-256 -258 0
-257 -258 0
256 257 258 0
-259 -260 0
-259 -261 0
-260 -261 0
259 260 261 0
-262 -263 0
-262 -264 0
-263 -264 0
262 263 264 0
-265 -266 0
-265 -267 0
-266 -267 0
265 266 267 0
-268 -269 0
-268 -270 0
-269 -270 0
268 269 270 0
-271 -272 0
-271 -273 0
-272 -273 0
271 272 273 0
-274 -275 0
-274 -276 0
-275 -276 0
274 275 276 0
-277 -278 0
-277 -279 0
-278 -279 0
277 278 279 0
-280 -281 0
-280 -282 0
-281 -282 0
280 281 282 0
-283 -284 0
-283 -285 0
-284 -285 0
283 284 285 0
-286 -287 0
-286 -288 0
-287 -288 0
286 287 288 0
-289 -290 0
-289 -291 0
-290 -291 0
289 290 291 0
-292 -293 0
-292 -294 0
-293 -294 0
292 293 294 0
-295 -296 0
-295 -297 0
-296 -297 0
295 296 297 0
-298 -299 0
-298 -300 0
-299 -300 0
298 299 300 0
-301 -302 0
-301 -303 0
-302 -303 0
301 302 303 0
-304 -305 0
-304 -306 0
-305 -306 0
304 305 306 0
-307 -308 0
-307 -309 0
-308 -309 0
307 308 309 0
-310 -311 0
-310 -312 0
-311 -312 0
310 311 312 0
-313 -314 0
-313 -315 0
-314 -315 0
313 314 315 0
-316 -317 0
-316 -318 0
-317 -318 0
316 317 318 0
-319 -320 0
-319 -321 0
-320 -321 0
319 320 321 0
-322 -323 0
-322 -324 0
-323 -324 0
322 323 324 0
-325 -326 0
-325 -327 0
-326 -327 0
325 326 327 0
-328 -329 0
-328 -330 0
-329 -330 0
328 329 330 0
-331 -332 0
-331 -333 0
-332 -333 0
331 332 333 0
-334 -335 0
-334 -336 0
-335 -336 0
334 335 336 0
-337 -338 0
-337 -339 0
-338 -339 0
337 338 339 0
-340 -341 0
-340 -342 0
-341 -342 0
340 341 342 0
-343 -344 0
-343 -345 0
-344 -345 0
343 344 345 0
-346 -347 0
-346 -348 0
-347 -348 0
346 347 348 0
-349 -350 0
-349 -351 0
-350 -351 0
349 350 351 0
-352 -353 0
-352 -354 0
-353 -354 0
352 353 354 0
-355 -356 0
-355 -357 0
-356 -357 0
355 356 357 0
-358 -359 0
-358 -360 0
-359 -360 0
358 359 360 0
-361 -362 0
-361 -363 0
-362 -363 0
361 362 363 0
-364 -365 0
-364 -366 0
-365 -366 0
364 365 366 0
-367 -368 0
-367 -369 0
-368 -369 0
367 368 369 0
-370 -371 0
-370 -372 0
-371 -372 0
370 371 372 0
-373 -374 0
-373 -375 0
-374 -375 0
373 374 375 0
-376 -377 0
-376 -378 0
-377 -378 0
376 377 378 0
-379 -380 0
-379 -381 0
-380 -381 0
379 380 381 0
-382 -383 0
-382 -384 0
-383 -384 0
382 383 384 0
-385 -386 0
-385 -387 0
-386 -387 0
385 386 387 0
-388 -389 0
-388 -390 0
-389 -390 0
388 389 390 0
-391 -392 0
-391 -393 0
-392 -393 0
391 392 393 0
-394 -395 0
-394 -396 0
-395 -396 0
394 395 396 0
-397 -398 0
-397 -399 0
-398 -399 0
397 398 399 0
-400 -401 0
-400 -402 0
-401 -402 0
400 401 402 0
-403 -404 0
-403 -405 0
-404 -405 0
403 404 405 0
-406 -407 0
-406 -408 0
-407 -408 0
406 407 408 0
-409 -410 0
-409 -411 0
-410 -411 0
409 410 411 0
-412 -413 0
-412 -414 0
-413 -414 0
412 413 414 0
-415 -416 0
-415 -417 0
-416 -417 0
415 416 417 0
-418 -419 0
-418 -420 0
-419 -420 0
418 419 420 0
-421 -422 0
-421 -423 0
-422 -423 0
421 422 423 0
-424 -425 0
-424 -426 0
-425 -426 0
424 425 426 0
-427 -428 0
-427 -429 0
-428 -429 0
427 428 429 0
-430 -431 0
-430 -432 0
-431 -432 0
430 431 432 0
-433 -434 0
-433 -435 0
-434 -435 0
433 434 435 0
-436 -437 0
-436 -438 0
-437 -438 0
436 437 438 0
-439 -440 0
-439 -441 0
-440 -441 0
439 440 441 0
-442 -443 0
-442 -444 0
-443 -444 0
442 443 444 0
-445 -446 0
-445 -447 0
-446 -447 0
445 446 447 0
-448 -449 0
-448 -450 0
-449 -450 0
448 449 450 0
-451 -452 0
-451 -453 0
-452 -453 0
451 452 453 0
-454 -455 0
-454 -456 0
-455 -456 0
454 455 456 0
-457 -458 0
-457 -459 0
-458 -459 0
457 458 459 0
-460 -461 0
-460 -462 0
-461 -462 0
460 461 462 0
-463 -464 0
-463 -465 0
-464 -465 0
463 464 465 0
-466 -467 0
-466 -468 0
-467 -468 0
466 467 468 0
-469 -470 0
-469 -471 0
-470 -471 0
469 470 471 0
-472 -473 0
-472 -474 0
-473 -474 0
472 473 474 0
-475 -476 0
-475 -477 0
-476 -477 0
475 476 477 0
-478 -479 0
-478 -480 0
-479 -480 0
478 479 480 0
-481 -482 0
-481 -483 0
-482 -483 0
481 482 483 0
-484 -485 0
-484 -486 0
-485 -486 0
484 485 486 0
-487 -488 0
-487 -489 0
-488 -489 0
487 488 489 0
-490 -491 0
-490 -492 0
-491 -492 0
490 491 492 0
-493 -494 0
-493 -495 0
-494 -495 0
493 494 495 0
-496 -497 0
-496 -498 0
-497 -498 0
496 497 498 0
-499 -500 0
-499 -501 0
-500 -501 0
499 500 501 0
-502 -503 0
-502 -504 0
-503 -504 0
502 503 504 0
-505 -506 0
-505 -507 0
-506 -507 0
505 506 507 0
-508 -509 0
-508 -510 0
-509 -510 0
508 509 510 0
-511 -512 0
-511 -513 0
-512 -513 0
511 512 513 0
-514 -515 0
-514 -516 0
-515 -516 0
514 515 516 0
-517 -518 0
-517 -519 0
-518 -519 0
517 518 519 0
-520 -521 0
-520 -522 0
-521 -522 0
520 521 522 0
-523 -524 0
-523 -525 0
-524 -525 0
523 524 525 0
-526 -527 0
-526 -528 0
-527 -528 0
526 527 528 0
-529 -530 0
-529 -531 0
-530 -531 0
529 530 531 0
-532 -533 0
-532 -534 0
-533 -534 0
532 533 534 0
-535 -536 0
-535 -537 0
-536 -537 0
535 536 537 0
-538 -539 0
-538 -540 0
-539 -540 0
538 539 540 0
-541 -542 0
-541 -543 0
-542 -543 0
541 542 543 0
-544 -545 0
-544 -546 0
-545 -546 0
544 545 546 0
-547 -548 0
-547 -549 0
-548 -549 0
547 548 549 0
-550 -551 0
-550 -552 0
-551 -552 0
550 551 552 0
-553 -554 0
-553 -555 0
-554 -555 0
553 554 555 0
-556 -557 0
-556 -558 0
-557 -558 0
556 557 558 0
-559 -560 0
-559 -561 0
-560 -561 0
559 560 561 0
-562 -563 0
-562 -564 0
-563 -564 0
562 563 564 0
-565 -566 0
-565 -567 0
-566 -567 0
565 566 567 0
-568 -569 0
-568 -570 0
-569 -570 0
568 569 570 0
-571 -572 0
-571 -573 0
-572 -573 0
571 572 573 0
-574 -575 0
-574 -576 0
-575 -576 0
574 575 576 0
-577 -578 0
-577 -579 0
-578 -579 0
577 578 579 0
-580 -581 0
-580 -582 0
-581 -582 0
580 581 582 0
-583 -584 0
-583 -585 0
-584 -585 0
583 584 585 0
-586 -587 0
-586 -588 0
-587 -588 0
586 587 588 0
-589 -590 0
-589 -591 0
-590 -591 0
589 590 591 0
-592 -593 0
-592 -594 0
-593 -594 0
592 593 594 0
-595 -596 0
-595 -597 0
-596 -597 0
595 596 597 0
-598 -599 0
-598 -600 0
-599 -600 0
598 599 600 0
-559 -1 0
-560 -2 0
-561 -3 0
-589 -1 0
-590 -2 0
-591 -3 0
-82 -4 0
-83 -5 0
-84 -6 0
-133 -4 0
-134 -5 0
-135 -6 0
-205 -4 0
-206 -5 0
-207 -6 0
-223 -4 0
-224 -5 0
-225 -6 0
-247 -4 0
-248 -5 0
-249 -6 0
-370 -4 0
-371 -5 0
-372 -6 0
-46 -7 0
-47 -8 0
-48 -9 0
-67 -7 0
-68 -8 0
-69 -9 0
-106 -7 0
-107 -8 0
-108 -9 0
-151 -7 0
-152 -8 0
-153 -9 0
-349 -7 0
-350 -8 0
-351 -9 0
-412 -7 0
-413 -8 0
-414 -9 0
-22 -10 0
-23 -11 0
-24 -12 0
-229 -10 0
-230 -11 0
-231 -12 0
-301 -10 0
-302 -11 0
-303 -12 0
-493 -10 0
-494 -11 0
-495 -12 0
-508 -10 0
-509 -11 0
-510 -12 0
-58 -13 0
-59 -14 0
-60 -15 0
-124 -13 0
-125 -14 0
-126 -15 0
-181 -13 0
-182 -14 0
-183 -15 0
-313 -13 0
-314 -14 0
-315 -15 0
-418 -13 0
-419 -14 0
-420 -15 0
-442 -13 0
-443 -14 0
-444 -15 0
-478 -13 0
-479 -14 0
-480 -15 0
-34 -16 0
-35 -17 0
-36 -18 0
-223 -16 0
-224 -17 0
-225 -18 0
-307 -16 0
-308 -17 0
-309 -18 0
-433 -16 0
-434 -17 0
-435 -18 0
-481 -16 0
-482 -17 0
-483 -18 0
-214 -19 0
-215 -20 0
-216 -21 0
-256 -19 0
-257 -20 0
-258 -21 0
-142 -22 0
-143 -23 0
-144 -24 0
-274 -22 0
-275 -23 0
-276 -24 0
-460 -22 0
-461 -23 0
-462 -24 0
-565 -25 0
-566 -26 0
-567 -27 0
-577 -25 0
-578 -26 0
-579 -27 0
-118 -28 0
-119 -29 0
-120 -30 0
-277 -28 0
-278 -29 0
-279 -30 0
-295 -28 0
-296 -29 0
-297 -30 0
-304 -28 0
-305 -29 0
-306 -30 0
-322 -28 0
-323 -29 0
-324 -30 0
-457 -28 0
-458 -29 0
-459 -30 0
-307 -31 0
-308 -32 0
-309 -33 0
-367 -31 0
-368 -32 0
-369 -33 0
-505 -31 0
-506 -32 0
-507 -33 0
-202 -34 0
-203 -35 0
-204 -36 0
-301 -34 0
-302 -35 0
-303 -36 0
-313 -34 0
-314 -35 0
-315 -36 0
-406 -34 0
-407 -35 0
-408 -36 0
-430 -34 0
-431 -35 0
-432 -36 0
-520 -34 0
-521 -35 0
-522 -36 0
-130 -37 0
-131 -38 0
-132 -39 0
-352 -37 0
-353 -38 0
-354 -39 0
-409 -37 0
-410 -38 0
-411 -39 0
-424 -37 0
-425 -38 0
-426 -39 0
-460 -37 0
-461 -38 0
-462 -39 0
-463 -37 0
-464 -38 0
-465 -39 0
-130 -40 0
-131 -41 0
-132 -42 0
-208 -40 0
-209 -41 0
-210 -42 0
-238 -40 0
-239 -41 0
-240 -42 0
-313 -40 0
-314 -41 0
-315 -42 0
-322 -40 0
-323 -41 0
-324 -42 0
-571 -40 0
-572 -41 0
-573 -42 0
-247 -43 0
-248 -44 0
-249 -45 0
-298 -43 0
-299 -44 0
-300 -45 0
-352 -43 0
-353 -44 0
-354 -45 0
-406 -43 0
-407 -44 0
-408 -45 0
-526 -43 0
-527 -44 0
-528 -45 0
-229 -46 0
-230 -47 0
-231 -48 0
-271 -46 0
-272 -47 0
-273 -48 0
-418 -46 0
-419 -47 0
-420 -48 0
-490 -46 0
-491 -47 0
-492 -48 0
-73 -49 0
-74 -50 0
-75 -51 0
-157 -49 0
-158 -50 0
-159 -51 0
-292 -49 0
-293 -50 0
-294 -51 0
-442 -49 0
-443 -50 0
-444 -51 0
-70 -52 0
-71 -53 0
-72 -54 0
-172 -52 0
-173 -53 0
-174 -54 0
-475 -52 0
-476 -53 0
-477 -54 0
-580 -52 0
-581 -53 0
-582 -54 0
-187 -55 0
-188 -56 0
-189 -57 0
-283 -55 0
-284 -56 0
-285 -57 0
-151 -58 0
-152 -59 0
-153 -60 0
-241 -58 0
-242 -59 0
-243 -60 0
-112 -61 0
-113 -62 0
-114 -63 0
-250 -61 0
-251 -62 0
-252 -63 0
-463 -61 0
-464 -62 0
-465 -63 0
-505 -61 0
-506 -62 0
-507 -63 0
-127 -64 0
-128 -65 0
-129 -66 0
-211 -64 0
-212 -65 0
-213 -66 0
-322 -64 0
-323 -65 0
-324 -66 0
-331 -64 0
-332 -65 0
-333 -66 0
-376 -64 0
-377 -65 0
-378 -66 0
-529 -64 0
-530 -65 0
-531 -66 0
-271 -67 0
-272 -68 0
-273 -69 0
-424 -67 0
-425 -68 0
-426 -69 0
-451 -67 0
-452 -68 0
-453 -69 0
-568 -67 0
-569 -68 0
-570 -69 0
-571 -67 0
-572 -68 0
-573 -69 0
-88 -70 0
-89 -71 0
-90 -72 0
-157 -70 0
-158 -71 0
-159 -72 0
-190 -70 0
-191 -71 0
-192 -72 0
-253 -70 0
-254 -71 0
-255 -72 0
-475 -70 0
-476 -71 0
-477 -72 0
-538 -70 0
-539 -71 0
-540 -72 0
-118 -73 0
-119 -74 0
-120 -75 0
-193 -73 0
-194 -74 0
-195 -75 0
-397 -73 0
-398 -74 0
-399 -75 0
-457 -73 0
-458 -74 0
-459 -75 0
-79 -76 0
-80 -77 0
-81 -78 0
-130 -76 0
-131 -77 0
-132 -78 0
-253 -76 0
-254 -77 0
-255 -78 0
-286 -76 0
-287 -77 0
-288 -78 0
-373 -76 0
-374 -77 0
-375 -78 0
-511 -76 0
-512 -77 0
-513 -78 0
-124 -79 0
-125 -80 0
-126 -81 0
-475 -79 0
-476 -80 0
-477 -81 0
-490 -79 0
-491 -80 0
-492 -81 0
-577 -79 0
-578 -80 0
-579 -81 0
-112 -82 0
-113 -83 0
-114 -84 0
-445 -82 0
-446 -83 0
-447 -84 0
-487 -82 0
-488 -83 0
-489 -84 0
-166 -85 0
-167 -86 0
-168 -87 0
-316 -85 0
-317 -86 0
-318 -87 0
-349 -85 0
-350 -86 0
-351 -87 0
-409 -85 0
-410 -86 0
-411 -87 0
-466 -85 0
-467 -86 0
-468 -87 0
-229 -88 0
-230 -89 0
-231 -90 0
-370 -88 0
-371 -89 0
-372 -90 0
-400 -88 0
-401 -89 0
-402 -90 0
-412 -88 0
-413 -89 0
-414 -90 0
-502 -88 0
-503 -89 0
-504 -90 0
-145 -91 0
-146 -92 0
-147 -93 0
-178 -91 0
-179 -92 0
-180 -93 0
-259 -91 0
-260 -92 0
-261 -93 0
-382 -91 0
-383 -92 0
-384 -93 0
-472 -91 0
-473 -92 0
-474 -93 0
-475 -91 0
-476 -92 0
-477 -93 0
-514 -91 0
-515 -92 0
-516 -93 0
-556 -91 0
-557 -92 0
-558 -93 0
-271 -94 0
-272 -95 0
-273 -96 0
-319 -94 0
-320 -95 0
-321 -96 0
-337 -94 0
-338 -95 0
-339 -96 0
-367 -94 0
-368 -95 0
-369 -96 0
-493 -94 0
-494 -95 0
-495 -96 0
-124 -97 0
-125 -98 0
-126 -99 0
-178 -100 0
-179 -101 0
-180 -102 0
-211 -100 0
-212 -101 0
-213 -102 0
-328 -100 0
-329 -101 0
-330 -102 0
-361 -100 0
-362 -101 0
-363 -102 0
-409 -100 0
-410 -101 0
-411 -102 0
-418 -100 0
-419 -101 0
-420 -102 0
-217 -103 0
-218 -104 0
-219 -105 0
-244 -103 0
-245 -104 0
-246 -105 0
-382 -103 0
-383 -104 0
-384 -105 0
-415 -103 0
-416 -104 0
-417 -105 0
-598 -103 0
-599 -104 0
-600 -105 0
-319 -106 0
-320 -107 0
-321 -108 0
-397 -106 0
-398 -107 0
-399 -108 0
-499 -106 0
-500 -107 0
-501 -108 0
-502 -106 0
-503 -107 0
-504 -108 0
-580 -106 0
-581 -107 0
-582 -108 0
-205 -109 0
-206 -110 0
-207 -111 0
-247 -109 0
-248 -110 0
-249 -111 0
-253 -109 0
-254 -110 0
-255 -111 0
-271 -109 0
-272 -110 0
-273 -111 0
-388 -109 0
-389 -110 0
-390 -111 0
-508 -109 0
-509 -110 0
-510 -111 0
-580 -109 0
-581 -110 0
-582 -111 0
-190 -112 0
-191 -113 0
-192 -114 0
-334 -112 0
-335 -113 0
-336 -114 0
-418 -112 0
-419 -113 0
-420 -114 0
-427 -112 0
-428 -113 0
-429 -114 0
-124 -115 0
-125 -116 0
-126 -117 0
-151 -115 0
-152 -116 0
-153 -117 0
-523 -115 0
-524 -116 0
-525 -117 0
-538 -115 0
-539 -116 0
-540 -117 0
-142 -118 0
-143 -119 0
-144 -120 0
-226 -118 0
-227 -119 0
-228 -120 0
-541 -118 0
-542 -119 0
-543 -120 0
-589 -118 0
-590 -119 0
-591 -120 0
-250 -121 0
-251 -122 0
-252 -123 0
-463 -121 0
-464 -122 0
-465 -123 0
-493 -121 0
-494 -122 0
-495 -123 0
-577 -121 0
-578 -122 0
-579 -123 0
-472 -124 0
-473 -125 0
-474 -126 0
-487 -124 0
-488 -125 0
-489 -126 0
-262 -127 0
-263 -128 0
-264 -129 0
-580 -127 0
-581 -128 0
-582 -129 0
-274 -130 0
-275 -131 0
-276 -132 0
-277 -130 0
-278 -131 0
-279 -132 0
-505 -130 0
-506 -131 0
-507 -132 0
-232 -133 0
-233 -134 0
-234 -135 0
-310 -133 0
-311 -134 0
-312 -135 0
-442 -133 0
-443 -134 0
-444 -135 0
-478 -133 0
-479 -134 0
-480 -135 0
-244 -136 0
-245 -137 0
-246 -138 0
-274 -136 0
-275 -137 0
-276 -138 0
-301 -136 0
-302 -137 0
-303 -138 0
-355 -136 0
-356 -137 0
-357 -138 0
-361 -136 0
-362 -137 0
-363 -138 0
-421 -136 0
-422 -137 0
-423 -138 0
-232 -139 0
-233 -140 0
-234 -141 0
-304 -139 0
-305 -140 0
-306 -141 0
-547 -139 0
-548 -140 0
-549 -141 0
-592 -139 0
-593 -140 0
-594 -141 0
-241 -142 0
-242 -143 0
-243 -144 0
-235 -145 0
-236 -146 0
-237 -147 0
-520 -145 0
-521 -146 0
-522 -147 0
-244 -148 0
-245 -149 0
-246 -150 0
-364 -148 0
-365 -149 0
-366 -150 0
-169 -151 0
-170 -152 0
-171 -153 0
-238 -151 0
-239 -152 0
-240 -153 0
-301 -151 0
-302 -152 0
-303 -153 0
-448 -151 0
-449 -152 0
-450 -153 0
-391 -154 0
-392 -155 0
-393 -156 0
-472 -154 0
-473 -155 0
-474 -156 0
-529 -154 0
-530 -155 0
-531 -156 0
-547 -154 0
-548 -155 0
-549 -156 0
-163 -157 0
-164 -158 0
-165 -159 0
-196 -157 0
-197 -158 0
-198 -159 0
-235 -157 0
-236 -158 0
-237 -159 0
-418 -157 0
-419 -158 0
-420 -159 0
-586 -157 0
-587 -158 0
-588 -159 0
-283 -160 0
-284 -161 0
-285 -162 0
-379 -160 0
-380 -161 0
-381 -162 0
-493 -160 0
-494 -161 0
-495 -162 0
-271 -163 0
-272 -164 0
-273 -165 0
-286 -163 0
-287 -164 0
-288 -165 0
-397 -163 0
-398 -164 0
-399 -165 0
-412 -163 0
-413 -164 0
-414 -165 0
-484 -163 0
-485 -164 0
-486 -165 0
-595 -163 0
-596 -164 0
-597 -165 0
-202 -166 0
-203 -167 0
-204 -168 0
-448 -166 0
-449 -167 0
-450 -168 0
-256 -169 0
-257 -170 0
-258 -171 0
-280 -169 0
-281 -170 0
-282 -171 0
-361 -169 0
-362 -170 0
-363 -171 0
-571 -169 0
-572 -170 0
-573 -171 0
-223 -172 0
-224 -173 0
-225 -174 0
-328 -172 0
-329 -173 0
-330 -174 0
-340 -172 0
-341 -173 0
-342 -174 0
-394 -172 0
-395 -173 0
-396 -174 0
-430 -172 0
-431 -173 0
-432 -174 0
-202 -175 0
-203 -176 0
-204 -177 0
-328 -175 0
-329 -176 0
-330 -177 0
-343 -175 0
-344 -176 0
-345 -177 0
-406 -175 0
-407 -176 0
-408 -177 0
-271 -178 0
-272 -179 0
-273 -180 0
-277 -178 0
-278 -179 0
-279 -180 0
-502 -178 0
-503 -179 0
-504 -180 0
-514 -181 0
-515 -182 0
-516 -183 0
-523 -181 0
-524 -182 0
-525 -183 0
-196 -184 0
-197 -185 0
-198 -186 0
-256 -184 0
-257 -185 0
-258 -186 0
-274 -184 0
-275 -185 0
-276 -186 0
-367 -184 0
-368 -185 0
-369 -186 0
-556 -184 0
-557 -185 0
-558 -186 0
-409 -187 0
-410 -188 0
-411 -189 0
-466 -187 0
-467 -188 0
-468 -189 0
-514 -187 0
-515 -188 0
-516 -189 0
-202 -190 0
-203 -191 0
-204 -192 0
-325 -190 0
-326 -191 0
-327 -192 0
-448 -190 0
-449 -191 0
-450 -192 0
-208 -193 0
-209 -194 0
-210 -195 0
-511 -193 0
-512 -194 0
-513 -195 0
-394 -196 0
-395 -197 0
-396 -198 0
-508 -196 0
-509 -197 0
-510 -198 0
-541 -196 0
-542 -197 0
-543 -198 0
-565 -196 0
-566 -197 0
-567 -198 0
-340 -199 0
-341 -200 0
-342 -201 0
-454 -199 0
-455 -200 0
-456 -201 0
-214 -202 0
-215 -203 0
-216 -204 0
-499 -202 0
-500 -203 0
-501 -204 0
-433 -205 0
-434 -206 0
-435 -207 0
-526 -205 0
-527 -206 0
-528 -207 0
-400 -208 0
-401 -209 0
-402 -210 0
-289 -211 0
-290 -212 0
-291 -213 0
-403 -211 0
-404 -212 0
-405 -213 0
-550 -211 0
-551 -212 0
-552 -213 0
-322 -214 0
-323 -215 0
-324 -216 0
-445 -214 0
-446 -215 0
-447 -216 0
-499 -214 0
-500 -215 0
-501 -216 0
-529 -214 0
-530 -215 0
-531 -216 0
-535 -214 0
-536 -215 0
-537 -216 0
-220 -217 0
-221 -218 0
-222 -219 0
-277 -217 0
-278 -218 0
-279 -219 0
-310 -217 0
-311 -218 0
-312 -219 0
-346 -217 0
-347 -218 0
-348 -219 0
-487 -217 0
-488 -218 0
-489 -219 0
-556 -217 0
-557 -218 0
-558 -219 0
-280 -220 0
-281 -221 0
-282 -222 0
-373 -220 0
-374 -221 0
-375 -222 0
-556 -220 0
-557 -221 0
-558 -222 0
-295 -223 0
-296 -224 0
-297 -225 0
-382 -223 0
-383 -224 0
-384 -225 0
-565 -223 0
-566 -224 0
-567 -225 0
-229 -226 0
-230 -227 0
-231 -228 0
-346 -226 0
-347 -227 0
-348 -228 0
-355 -226 0
-356 -227 0
-357 -228 0
-442 -226 0
-443 -227 0
-444 -228 0
-307 -229 0
-308 -230 0
-309 -231 0
-484 -229 0
-485 -230 0
-486 -231 0
-256 -232 0
-257 -233 0
-258 -234 0
-268 -232 0
-269 -233 0
-270 -234 0
-352 -232 0
-353 -233 0
-354 -234 0
-463 -232 0
-464 -233 0
-465 -234 0
-541 -232 0
-542 -233 0
-543 -234 0
-301 -235 0
-302 -236 0
-303 -237 0
-331 -235 0
-332 -236 0
-333 -237 0
-391 -235 0
-392 -236 0
-393 -237 0
-412 -235 0
-413 -236 0
-414 -237 0
-598 -235 0
-599 -236 0
-600 -237 0
-403 -238 0
-404 -239 0
-405 -240 0
-532 -238 0
-533 -239 0
-534 -240 0
-535 -238 0
-536 -239 0
-537 -240 0
-388 -241 0
-389 -242 0
-390 -243 0
-544 -241 0
-545 -242 0
-546 -243 0
-250 -244 0
-251 -245 0
-252 -246 0
-313 -244 0
-314 -245 0
-315 -246 0
-427 -244 0
-428 -245 0
-429 -246 0
-463 -244 0
-464 -245 0
-465 -246 0
-271 -247 0
-272 -248 0
-273 -249 0
-508 -247 0
-509 -248 0
-510 -249 0
-439 -250 0
-440 -251 0
-441 -252 0
-454 -250 0
-455 -251 0
-456 -252 0
-460 -253 0
-461 -254 0
-462 -255 0
-463 -253 0
-464 -254 0
-465 -255 0
-421 -256 0
-422 -257 0
-423 -258 0
-433 -256 0
-434 -257 0
-435 -258 0
-496 -256 0
-497 -257 0
-498 -258 0
-562 -259 0
-563 -260 0
-564 -261 0
-286 -262 0
-287 -263 0
-288 -264 0
-406 -262 0
-407 -263 0
-408 -264 0
-355 -265 0
-356 -266 0
-357 -267 0
-442 -265 0
-443 -266 0
-444 -267 0
-496 -265 0
-497 -266 0
-498 -267 0
-559 -265 0
-560 -266 0
-561 -267 0
-361 -268 0
-362 -269 0
-363 -270 0
-388 -268 0
-389 -269 0
-390 -270 0
-592 -268 0
-593 -269 0
-594 -270 0
-598 -268 0
-599 -269 0
-600 -270 0
-280 -277 0
-281 -278 0
-282 -279 0
-544 -277 0
-545 -278 0
-546 -279 0
-361 -280 0
-362 -281 0
-363 -282 0
-418 -280 0
-419 -281 0
-420 -282 0
-376 -283 0
-377 -284 0
-378 -285 0
-457 -283 0
-458 -284 0
-459 -285 0
-478 -283 0
-479 -284 0
-480 -285 0
-325 -286 0
-326 -287 0
-327 -288 0
-376 -286 0
-377 -287 0
-378 -288 0
-322 -289 0
-323 -290 0
-324 -291 0
-364 -289 0
-365 -290 0
-366 -291 0
-400 -289 0
-401 -290 0
-402 -291 0
-559 -289 0
-560 -290 0
-561 -291 0
-307 -292 0
-308 -293 0
-309 -294 0
-355 -292 0
-356 -293 0
-357 -294 0
-511 -292 0
-512 -293 0
-513 -294 0
-565 -292 0
-566 -293 0
-567 -294 0
-571 -292 0
-572 -293 0
-573 -294 0
-340 -295 0
-341 -296 0
-342 -297 0
-415 -295 0
-416 -296 0
-417 -297 0
-565 -295 0
-566 -296 0
-567 -297 0
-514 -298 0
-515 -299 0
-516 -300 0
-574 -298 0
-575 -299 0
-576 -300 0
-373 -301 0
-374 -302 0
-375 -303 0
-382 -301 0
-383 -302 0
-384 -303 0
-568 -307 0
-569 -308 0
-570 -309 0
-586 -307 0
-587 -308 0
-588 -309 0
-589 -307 0
-590 -308 0
-591 -309 0
-322 -310 0
-323 -311 0
-324 -312 0
-355 -310 0
-356 -311 0
-357 -312 0
-379 -313 0
-380 -314 0
-381 -315 0
-484 -313 0
-485 -314 0
-486 -315 0
-406 -316 0
-407 -317 0
-408 -318 0
-508 -316 0
-509 -317 0
-510 -318 0
-538 -316 0
-539 -317 0
-540 -318 0
-349 -319 0
-350 -320 0
-351 -321 0
-481 -319 0
-482 -320 0
-483 -321 0
-496 -319 0
-497 -320 0
-498 -321 0
-376 -328 0
-377 -329 0
-378 -330 0
-436 -328 0
-437 -329 0
-438 -330 0
-559 -328 0
-560 -329 0
-561 -330 0
-382 -334 0
-383 -335 0
-384 -336 0
-358 -337 0
-359 -338 0
-360 -339 0
-478 -337 0
-479 -338 0
-480 -339 0
-538 -337 0
-539 -338 0
-540 -339 0
-544 -337 0
-545 -338 0
-546 -339 0
-364 -340 0
-365 -341 0
-366 -342 0
-430 -340 0
-431 -341 0
-432 -342 0
-499 -340 0
-500 -341 0
-501 -342 0
-346 -343 0
-347 -344 0
-348 -345 0
-493 -343 0
-494 -344 0
-495 -345 0
-349 -346 0
-350 -347 0
-351 -348 0
-385 -346 0
-386 -347 0
-387 -348 0
-454 -346 0
-455 -347 0
-456 -348 0
-478 -349 0
-479 -350 0
-480 -351 0
-580 -349 0
-581 -350 0
-582 -351 0
-445 -352 0
-446 -353 0
-447 -354 0
-397 -355 0
-398 -356 0
-399 -357 0
-379 -358 0
-380 -359 0
-381 -360 0
-520 -358 0
-521 -359 0
-522 -360 0
-538 -361 0
-539 -362 0
-540 -363 0
-577 -361 0
-578 -362 0
-579 -363 0
-589 -361 0
-590 -362 0
-591 -363 0
-472 -364 0
-473 -365 0
-474 -366 0
-460 -367 0
-461 -368 0
-462 -369 0
-493 -367 0
-494 -368 0
-495 -369 0
-577 -367 0
-578 -368 0
-579 -369 0
-427 -370 0
-428 -371 0
-429 -372 0
-541 -370 0
-542 -371 0
-543 -372 0
-571 -370 0
-572 -371 0
-573 -372 0
-379 -373 0
-380 -374 0
-381 -375 0
-496 -373 0
-497 -374 0
-498 -375 0
-547 -373 0
-548 -374 0
-549 -375 0
-415 -376 0
-416 -377 0
-417 -378 0
-496 -376 0
-497 -377 0
-498 -378 0
-406 -385 0
-407 -386 0
-408 -387 0
-568 -385 0
-569 -386 0
-570 -387 0
-565 -388 0
-566 -389 0
-567 -390 0
-406 -391 0
-407 -392 0
-408 -393 0
-457 -391 0
-458 -392 0
-459 -393 0
-574 -391 0
-575 -392 0
-576 -393 0
-577 -391 0
-578 -392 0
-579 -393 0
-424 -394 0
-425 -395 0
-426 -396 0
-463 -400 0
-464 -401 0
-465 -402 0
-553 -409 0
-554 -410 0
-555 -411 0
-565 -409 0
-566 -410 0
-567 -411 0
-499 -412 0
-500 -413 0
-501 -414 0
-508 -412 0
-509 -413 0
-510 -414 0
-520 -415 0
-521 -416 0
-522 -417 0
-589 -415 0
-590 -416 0
-591 -417 0
-451 -418 0
-452 -419 0
-453 -420 0
-592 -424 0
-593 -425 0
-594 -426 0
-556 -427 0
-557 -428 0
-558 -429 0
-592 -427 0
-593 -428 0
-594 -429 0
-553 -430 0
-554 -431 0
-555 -432 0
-505 -436 0
-506 -437 0
-507 -438 0
-520 -436 0
-521 -437 0
-522 -438 0
-445 -439 0
-446 -440 0
-447 -441 0
-460 -445 0
-461 -446 0
-462 -447 0
-517 -448 0
-518 -449 0
-519 -450 0
-469 -451 0
-470 -452 0
-471 -453 0
-487 -457 0
-488 -458 0
-489 -459 0
-532 -460 0
-533 -461 0
-534 -462 0
-559 -460 0
-560 -461 0
-561 -462 0
-535 -463 0
-536 -464 0
-537 -465 0
-541 -466 0
-542 -467 0
-543 -468 0
-562 -466 0
-563 -467 0
-564 -468 0
-529 -472 0
-530 -473 0
-531 -474 0
-559 -472 0
-560 -473 0
-561 -474 0
-487 -475 0
-488 -476 0
-489 -477 0
-511 -475 0
-512 -476 0
-513 -477 0
-598 -475 0
-599 -476 0
-600 -477 0
-496 -481 0
-497 -482 0
-498 -483 0
-550 -481 0
-551 -482 0
-552 -483 0
-490 -484 0
-491 -485 0
-492 -486 0
-574 -493 0
-575 -494 0
-576 -495 0
-580 -499 0
-581 -500 0
-582 -501 0
-571 -505 0
-572 -506 0
-573 -507 0
-562 -511 0
-563 -512 0
-564 -513 0
-568 -514 0
-569 -515 0
-570 -516 0
-571 -514 0
-572 -515 0
-573 -516 0
-520 -517 0
-521 -518 0
-522 -519 0
-592 -517 0
-593 -518 0
-594 -519 0
-538 -520 0
-539 -521 0
-540 -522 0
-544 -526 0
-545 -527 0
-546 -528 0
-595 -541 0
-596 -542 0
-597 -543 0
-568 -547 0
-569 -548 0
-570 -549 0
-586 -550 0
-587 -551 0
-588 -552 0
-562 -553 0
-563 -554 0
-564 -555 0
-568 -556 0
-569 -557 0
-570 -558 0
-583 -559 0
-584 -560 0
-585 -561 0
-571 -562 0
-572 -563 0
-573 -564 0
-595 -565 0
-596 -566 0
-597 -567 0
-592 -580 0
-593 -581 0
-594 -582 0
-598 -592 0
-599 -593 0
-600 -594 0
